Linux optc-01-07 4.15.0-58-generic #64-Ubuntu SMP Tue Aug 6 11:12:41 UTC 2019 x86_64 x86_64 x86_64 GNU/Linux

top - 21:56:30 up 1 day, 11:57,  0 users,  load average: 0,21, 0,66, 0,86
Tasks: 290 gesamt,   1 laufend, 149 schlafend,   0 gestoppt,   0 Zombie
%CPU(s):  7,5 be,  0,2 sy,  0,0 ni, 92,2 un,  0,0 wa,  0,0 hi,  0,0 si,  0,0 st
KiB Spch : 97514992 gesamt, 95234928 frei,   651464 belegt,  1628604 Puff/Cache
KiB Swap:  8388604 gesamt,  8388604 frei,        0 belegt. 96121632 verfü Spch 

  PID USER      PR  NI    VIRT    RES    SHR S  %CPU %MEM     ZEIT+ BEFEHL
    1 root      20   0  233836   9416   6696 S   0,0  0,0   0:11.63 systemd
    2 root      20   0       0      0      0 S   0,0  0,0   0:00.12 kthreadd
    3 root      20   0       0      0      0 I   0,0  0,0   0:01.43 kworker/0:0
    4 root       0 -20       0      0      0 I   0,0  0,0   0:00.00 kworker/0:+
    6 root      20   0       0      0      0 I   0,0  0,0   0:00.00 kworker/u3+
    7 root       0 -20       0      0      0 I   0,0  0,0   0:00.00 mm_percpu_+
    8 root      20   0       0      0      0 S   0,0  0,0   0:00.04 ksoftirqd/0
    9 root      20   0       0      0      0 I   0,0  0,0   0:12.79 rcu_sched

hard time limit: 04:10:00
hard mem limit: 55100

SLURM jobID: 2182607

@01 /nfs/optimi/kombadon/IP/coral/neos-1224597.mps.gz ===========
-----------------------------
Do 22. Aug 21:56:30 CEST 2019
-----------------------------
@03 1566503790
@05 7200
SCIP version 6.0.0 [precision: 8 byte] [memory: block] [mode: optimized] [LP solver: CPLEX 12.8.0.0] [GitHash: 41ab6e0014]
Copyright (C) 2002-2018 Konrad-Zuse-Zentrum fuer Informationstechnik Berlin (ZIB)

External codes: 
  Readline 7.0         GNU library for command line editing (gnu.org/s/readline)
  CPLEX 12.8.0.0       Linear Programming Solver developed by IBM (www.cplex.com)
  CppAD 20180000.0     Algorithmic Differentiation of C++ algorithms developed by B. Bell (www.coin-or.org/CppAD)
  ZLIB 1.2.11          General purpose compression library by J. Gailly and M. Adler (zlib.net)
  GMP 6.1.2            GNU Multiple Precision Arithmetic Library developed by T. Granlund (gmplib.org)
  bliss 0.73p          Computing Graph Automorphism Groups by T. Junttila and P. Kaski (http://www.tcs.hut.fi/Software/bliss/)

user parameter file <scip.set> not found - using default parameters

SCIP> 
SCIP> set load /home/optimi/bzfhende/opti/scip-opti/check/../settings/enable_treeeprofile.set
loaded parameter file </home/optimi/bzfhende/opti/scip-opti/check/../settings/enable_treeprofile.set>
SCIP> set misc referencevalue -428
misc/referencevalue = -428
SCIP> set limits time 7200
limits/time = 7200
SCIP> set limits nodes 2100000000
limits/nodes = 2100000000
SCIP> set limits memory 50000
limits/memory = 50000
SCIP> set lp advanced threads 1
lp/threads = 1
SCIP> set timing clocktype 1
timing/clocktype = 1
SCIP> set display freq 10000
display/freq = 10000
SCIP> set memory savefac 1.0
memory/savefac = 1
SCIP> set save /home/optimi/bzfhende/opti/scip-opti/check/treesize.estimation.jouurnal.3/bzfhende.MMMc.143_neos-1224597.scip.M640.enable_treeprofile.set
saved parameter file </home/optimi/bzfhende/opti/scip-opti/check/treesize.estimation.journal.3/bzfhende.MMMc.143_neos-1224597.scip.M640.enable_treeprofile.set>
SCIP> read /nfs/optimi/kombadon/IP/coral/neos-1224597.mps.gz

read problem </nfs/optimi/kombadon/IP/coral/neos-1224597.mps.gz>
============

original problem has 3395 variables (3150 bin, 245 int, 0 impl, 0 cont) and 3276 constraints
SCIP> display parameters

number of parameters = 2448
non-default parameter settings:
display/freq = 10000
limits/time = 7200
limits/nodes = 2100000000
limits/memory = 50000
lp/threads = 1
memory/savefac = 1
misc/referencevalue = -428
presolving/maxrestarts = 0
estimates/profile/enabled = TRUE
estimates/profile/maxdepthfactor = 10
estimates/profile/freq = 0

SCIP> optimize

Activating tree profile data collection
presolving:
(round 1, fast)       490 del vars, 315 del conss, 0 add conss, 0 chg bounds, 15 chg sides, 15 chg coeffs, 0 upgd conss, 0 impls, 2059 clqs
(round 2, exhaustive) 490 del vars, 1539 del conss, 0 add conss, 0 chg bounds, 1235 chg sides, 15 chg coeffs, 0 upgd conss, 0 impls, 2059 clqs
(round 3, exhaustive) 490 del vars, 1622 del conss, 0 add conss, 0 chg bounds, 1318 chg sides, 15 chg coeffs, 0 upgd conss, 0 impls, 2059 clqs
(round 4, exhaustive) 490 del vars, 1622 del conss, 0 add conss, 0 chg bounds, 1318 chg sides, 15 chg coeffs, 1586 upgd conss, 0 impls, 2059 clqs
(round 5, medium)     490 del vars, 1699 del conss, 87 add conss, 350 chg bounds, 1405 chg sides, 288 chg coeffs, 1586 upgd conss, 0 impls, 2059 clqs
(round 6, fast)       840 del vars, 1701 del conss, 87 add conss, 350 chg bounds, 1405 chg sides, 288 chg coeffs, 1586 upgd conss, 0 impls, 2059 clqs
(round 7, exhaustive) 840 del vars, 1701 del conss, 87 add conss, 350 chg bounds, 1405 chg sides, 423 chg coeffs, 1586 upgd conss, 0 impls, 2059 clqs
(round 8, exhaustive) 840 del vars, 1701 del conss, 87 add conss, 350 chg bounds, 1405 chg sides, 548 chg coeffs, 1586 upgd conss, 0 impls, 2059 clqs
(round 9, exhaustive) 840 del vars, 1701 del conss, 87 add conss, 350 chg bounds, 1405 chg sides, 563 chg coeffs, 1591 upgd conss, 0 impls, 2059 clqs
   (0.1s) probing: 51/2520 (2.0%) - 0 fixings, 0 aggregations, 0 implications, 0 bound changes
   (0.1s) probing aborted: 50/50 successive totally useless probings
presolving (10 rounds: 10 fast, 8 medium, 7 exhaustive):
 840 deleted vars, 1701 deleted constraints, 87 added constraints, 350 tightened bounds, 0 added holes, 1405 changed sides, 590 changed coefficients
 0 implications, 2059 cliques
presolved problem has 2555 variables (2520 bin, 35 int, 0 impl, 0 cont) and 1662 constraints
    665 constraints of type <knapsack>
    919 constraints of type <setppc>
     63 constraints of type <linear>
     15 constraints of type <logicor>
transformed objective value is always integral (scale: 1)
Presolving Time: 0.11

 time | node  | left  |LP iter|LP it/n| mem |mdpt |frac |vars |cons |cols |rows |cuts |confs|strbr|  dualbound   | primalbound  |  gap   
  0.2s|     1 |     0 |   718 |     - |  32M|   0 | 217 |2555 |1747 |2555 |1662 |   0 |  84 |   0 |-4.280000e+02 |      --      |    Inf 
  0.5s|     1 |     0 |  2197 |     - |  34M|   0 | 249 |2555 |1748 |2555 |1693 |  31 |  85 |   0 |-4.280000e+02 |      --      |    Inf 
  0.5s|     1 |     0 |  2398 |     - |  34M|   0 | 204 |2555 |1750 |2555 |1719 |  57 |  87 |   0 |-4.280000e+02 |      --      |    Inf 
  0.6s|     1 |     0 |  2521 |     - |  34M|   0 | 174 |2555 |1750 |2555 |1738 |  76 |  87 |   0 |-4.280000e+02 |      --      |    Inf 
  0.7s|     1 |     0 |  2586 |     - |  36M|   0 | 153 |2555 |1750 |2555 |1749 |  87 |  87 |   0 |-4.280000e+02 |      --      |    Inf 
  0.7s|     1 |     0 |  2628 |     - |  36M|   0 |  85 |2555 |1750 |2555 |1757 |  95 |  87 |   0 |-4.280000e+02 |      --      |    Inf 
  0.8s|     1 |     0 |  2632 |     - |  37M|   0 |  18 |2555 |1750 |2555 |1762 | 100 |  87 |   0 |-4.280000e+02 |      --      |    Inf 
R 0.8s|     1 |     0 |  2632 |     - |  37M|   0 |   - |2555 |1750 |2555 |1762 | 100 |  87 |   0 |-4.280000e+02 |-4.280000e+02 |   0.00%
SCIP nodes: 1 Estimation: -1
  0.8s|     1 |     0 |  2632 |     - |  37M|   0 |   - |2555 |1750 |2555 |1762 | 100 |  87 |   0 |-4.280000e+02 |-4.280000e+02 |   0.00%
Report 1
Time Elapsed: 0.75
  Tree Data        : 1 nodes (1 visited, 0 inner, 1 leaves, 0 open), progress: 1.0000
Tree Estimation    :       estim       value       trend  resolution      smooth
  wbe              :          -1           -           -           -           -
  tree profile     :          -1           -           -           -           -
  gap              :           1     1.00000     1.00000           1           1
  progress         :           1     1.00000     1.00000           1           1
  leaf-frequency   :           1     0.50000     1.00000           1           1
  ssg              :           1     0.00000    -1.00000           1           1
  open-nodes       :           1     0.00000     0.00000           1           1
End of Report 1


SCIP Status        : problem is solved [optimal solution found]
Solving Time (sec) : 0.75
Solving Nodes      : 1
Primal Bound       : -4.28000000000000e+02 (1 solutions)
Dual Bound         : -4.28000000000000e+02
Gap                : 0.00 %

SCIP> display statistics

SCIP Status        : problem is solved [optimal solution found]
Total Time         :       0.76
  solving          :       0.75
  presolving       :       0.11 (included in solving)
  reading          :       0.01
  copying          :       0.00 (0 times copied the problem)
Original Problem   :
  Problem name     : file
  Variables        : 3395 (3150 binary, 245 integer, 0 implicit integer, 0 continuous)
  Constraints      : 3276 initial, 3276 maximal
  Objective        : minimize, 3395 non-zeros (abs.min = 1, abs.max = 1)
Presolved Problem  :
  Problem name     : t_file
  Variables        : 2555 (2520 binary, 35 integer, 0 implicit integer, 0 continuous)
  Constraints      : 1662 initial, 1750 maximal
  Objective        : minimize, 1330 non-zeros (abs.min = 1, abs.max = 1)
Presolvers         :   ExecTime  SetupTime  Calls  FixedVars   AggrVars   ChgTypes  ChgBounds   AddHoles    DelCons    AddCons   ChgSides   ChgCoefs
  boundshift       :       0.00       0.00      0          0          0          0          0          0          0          0          0          0
  convertinttobin  :       0.00       0.00      0          0          0          0          0          0          0          0          0          0
  domcol           :       0.00       0.00      1          0          0          0          0          0          0          0          0          0
  dualagg          :       0.00       0.00      0          0          0          0          0          0          0          0          0          0
  dualcomp         :       0.00       0.00      0          0          0          0          0          0          0          0          0          0
  dualinfer        :       0.00       0.00      0          0          0          0          0          0          0          0          0          0
  gateextraction   :       0.00       0.00      4          0          0          0          0          0          0          0          0          0
  implics          :       0.00       0.00      8          0          0          0          0          0          0          0          0          0
  inttobinary      :       0.00       0.00     10          0          0          0          0          0          0          0          0          0
  qpkktref         :       0.00       0.00      0          0          0          0          0          0          0          0          0          0
  redvub           :       0.00       0.00      0          0          0          0          0          0          0          0          0          0
  sparsify         :       0.01       0.00      1          0          0          0          0          0          0          0          0          0
  stuffing         :       0.00       0.00      0          0          0          0          0          0          0          0          0          0
  symbreak         :       0.00       0.00      0          0          0          0          0          0          0          0          0          0
  symmetry         :       0.00       0.00      0          0          0          0          0          0          0          0          0          0
  trivial          :       0.00       0.00     10        350          0          0          0          0          0          0          0          0
  tworowbnd        :       0.00       0.00      0          0          0          0          0          0          0          0          0          0
  dualfix          :       0.00       0.00     10         35          0          0          0          0          0          0          0          0
  genvbounds       :       0.00       0.00      0          0          0          0          0          0          0          0          0          0
  orbitalfixing    :       0.00       0.00      0          0          0          0          0          0          0          0          0          0
  probing          :       0.01       0.00      1          0          0          0          0          0          0          0          0          0
  pseudoobj        :       0.00       0.00      0          0          0          0          0          0          0          0          0          0
  vbounds          :       0.00       0.00      1          0          0          0          0          0          0          0          0          0
  knapsack         :       0.02       0.00     15          0          0          0        350          0         12         87         87        563
  setppc           :       0.00       0.00     13          0          0          0          0          0         67          0          0          0
  linear           :       0.07       0.00     15          0        455          0          0          0       1622          0       1318         15
  logicor          :       0.00       0.00     12          0          0          0          0          0          0          0          0         12
  benders          :       0.00       0.00      0          0          0          0          0          0          0          0          0          0
  components       :       0.00       0.00      1          0          0          0          0          0          0          0          0          0
  root node        :          -          -      -          0          -          -          0          -          -          -          -          -
Constraints        :     Number  MaxNumber  #Separate #Propagate    #EnfoLP    #EnfoRelax  #EnfoPS    #Check   #ResProp    Cutoffs    DomReds       Cuts    Applied      Conss   Children
  benderslp        :          0          0          0          0          0          0          0         16          0          0          0          0          0          0          0
  integral         :          0          0          0          0          0          0          0         16          0          0          0          0          0          0          0
  knapsack         :        665        665          6       2498          0          0          0         10        910         10          0        403         49          0          0
  setppc           :        919+       920          6       2488          0          0          0          3        293          5          0          0          0          0          0
  linear           :         63         63          6       2483          0          0          0          1        129          7          0          0          0          0          0
  logicor          :         15+       102          6        110          0          0          0          1          5          1          0          1          1          0          0
  benders          :          0          0          0          0          0          0          0          2          0          0          0          0          0          0          0
  countsols        :          0          0          0          0          0          0          0          2          0          0          0          0          0          0          0
  components       :          0          0          0          0          0          0          0          0          0          0          0          0          0          0          0
Constraint Timings :  TotalTime  SetupTime   Separate  Propagate     EnfoLP     EnfoPS     EnfoRelax   Check    ResProp    SB-Prop
  benderslp        :       0.00       0.00       0.00       0.00       0.00       0.00       0.00       0.00       0.00       0.00
  integral         :       0.00       0.00       0.00       0.00       0.00       0.00       0.00       0.00       0.00       0.00
  knapsack         :       0.04       0.00       0.01       0.03       0.00       0.00       0.00       0.00       0.00       0.00
  setppc           :       0.02       0.00       0.00       0.02       0.00       0.00       0.00       0.00       0.00       0.00
  linear           :       0.00       0.00       0.00       0.00       0.00       0.00       0.00       0.00       0.00       0.00
  logicor          :       0.00       0.00       0.00       0.00       0.00       0.00       0.00       0.00       0.00       0.00
  benders          :       0.00       0.00       0.00       0.00       0.00       0.00       0.00       0.00       0.00       0.00
  countsols        :       0.00       0.00       0.00       0.00       0.00       0.00       0.00       0.00       0.00       0.00
  components       :       0.00       0.00       0.00       0.00       0.00       0.00       0.00       0.00       0.00       0.00
Propagators        : #Propagate   #ResProp    Cutoffs    DomReds
  dualfix          :          1          0          0          0
  genvbounds       :          0          0          0          0
  nlobbt           :          0          0          0          0
  obbt             :          0          0          0          0
  orbitalfixing    :          0          0          0          0
  probing          :          0          0          0          0
  pseudoobj        :          8          0          0          0
  redcost          :          7          0          0          0
  rootredcost      :          0          0          0          0
  vbounds          :       2439          0          0          0
Propagator Timings :  TotalTime  SetupTime   Presolve  Propagate    ResProp    SB-Prop
  dualfix          :       0.00       0.00       0.00       0.00       0.00       0.00
  genvbounds       :       0.00       0.00       0.00       0.00       0.00       0.00
  nlobbt           :       0.00       0.00       0.00       0.00       0.00       0.00
  obbt             :       0.00       0.00       0.00       0.00       0.00       0.00
  orbitalfixing    :       0.01       0.00       0.00       0.01       0.00       0.00
  probing          :       0.01       0.00       0.01       0.00       0.00       0.00
  pseudoobj        :       0.01       0.00       0.00       0.01       0.00       0.00
  redcost          :       0.00       0.00       0.00       0.00       0.00       0.00
  rootredcost      :       0.00       0.00       0.00       0.00       0.00       0.00
  vbounds          :       0.00       0.00       0.00       0.00       0.00       0.00
Conflict Analysis  :       Time      Calls    Success    DomReds  Conflicts   Literals    Reconvs ReconvLits   Dualrays   Nonzeros   LP Iters   (pool size: [10000,10000])
  propagation      :       0.00         16         16          -        161       59.1          0        0.0          -          -          -
  infeasible LP    :       0.00          0          0          -          0        0.0          0        0.0          0        0.0          0
  bound exceed. LP :       0.00          0          0          -          0        0.0          0        0.0          0        0.0          0
  strong branching :       0.00          0          0          -          0        0.0          0        0.0          -          -          0
  pseudo solution  :       0.00          0          0          -          0        0.0          0        0.0          -          -          -
  applied globally :       0.00          -          -          0         87       34.7          -          -          0          -          -
  applied locally  :          -          -          -          0          0        0.0          -          -          0          -          -
Separators         :   ExecTime  SetupTime      Calls    Cutoffs    DomReds       Cuts    Applied      Conss
  cut pool         :       0.00                    11          -          -        239          -          -    (maximal pool size: 699)
  aggregation      :       0.00       0.00          6          0          0          0          0          0
  cgmip            :       0.00       0.00          0          0          0          0          0          0
  clique           :       0.01       0.00          6          0          0          0          0          0
  closecuts        :       0.00       0.00          0          0          0          0          0          0
  cmir             :       0.00       0.00          0          0          0          0         11          0
  convexproj       :       0.00       0.00          0          0          0          0          0          0
  disjunctive      :       0.00       0.00          0          0          0          0          0          0
  eccuts           :       0.00       0.00          0          0          0          0          0          0
  flowcover        :       0.00       0.00          0          0          0          0         23          0
  gauge            :       0.00       0.00          0          0          0          0          0          0
  gomory           :       0.13       0.00          6          0          0          0         11          0
  impliedbounds    :       0.00       0.00          6          0          0          0          0          0
  intobj           :       0.00       0.00          0          0          0          0          0          0
  mcf              :       0.00       0.00          1          0          0          0          0          0
  oddcycle         :       0.00       0.00          0          0          0          0          0          0
  rapidlearning    :       0.00       0.00          0          0          0          0          0          0
  strongcg         :       0.10       0.00          6          0          0          0          0          0
  zerohalf         :       0.03       0.00          6          0          0          0          5          0
Pricers            :   ExecTime  SetupTime      Calls       Vars
  problem variables:       0.00          -          0          0
Branching Rules    :   ExecTime  SetupTime   BranchLP  BranchExt   BranchPS    Cutoffs    DomReds       Cuts      Conss   Children
  allfullstrong    :       0.00       0.00          0          0          0          0          0          0          0          0
  cloud            :       0.00       0.00          0          0          0          0          0          0          0          0
  distribution     :       0.00       0.00          0          0          0          0          0          0          0          0
  fullstrong       :       0.00       0.00          0          0          0          0          0          0          0          0
  inference        :       0.00       0.00          0          0          0          0          0          0          0          0
  leastinf         :       0.00       0.00          0          0          0          0          0          0          0          0
  lookahead        :       0.00       0.00          0          0          0          0          0          0          0          0
  mostinf          :       0.00       0.00          0          0          0          0          0          0          0          0
  multaggr         :       0.00       0.00          0          0          0          0          0          0          0          0
  nodereopt        :       0.00       0.00          0          0          0          0          0          0          0          0
  pscost           :       0.00       0.00          0          0          0          0          0          0          0          0
  random           :       0.00       0.00          0          0          0          0          0          0          0          0
  relpscost        :       0.00       0.00          0          0          0          0          0          0          0          0
Primal Heuristics  :   ExecTime  SetupTime      Calls      Found       Best
  LP solutions     :       0.00          -          -          0          0
  relax solutions  :       0.00          -          -          0          0
  pseudo solutions :       0.00          -          -          0          0
  strong branching :       0.00          -          -          0          0
  actconsdiving    :       0.00       0.00          0          0          0
  alns             :       0.00       0.00          0          0          0
  bound            :       0.00       0.00          0          0          0
  clique           :       0.01       0.00          1          0          0
  coefdiving       :       0.00       0.00          0          0          0
  completesol      :       0.00       0.00          0          0          0
  conflictdiving   :       0.00       0.00          0          0          0
  crossover        :       0.00       0.00          0          0          0
  dins             :       0.00       0.00          0          0          0
  distributiondivin:       0.00       0.00          0          0          0
  dualval          :       0.00       0.00          0          0          0
  farkasdiving     :       0.00       0.00          0          0          0
  feaspump         :       0.19       0.00          1          0          0
  fixandinfer      :       0.00       0.00          0          0          0
  fracdiving       :       0.00       0.00          0          0          0
  gins             :       0.00       0.00          0          0          0
  guideddiving     :       0.00       0.00          0          0          0
  indicator        :       0.00       0.00          0          0          0
  intdiving        :       0.00       0.00          0          0          0
  intshifting      :       0.00       0.00          0          0          0
  linesearchdiving :       0.00       0.00          0          0          0
  localbranching   :       0.00       0.00          0          0          0
  locks            :       0.01       0.00          1          0          0
  lpface           :       0.00       0.00          0          0          0
  mpec             :       0.00       0.00          0          0          0
  multistart       :       0.00       0.00          0          0          0
  mutation         :       0.00       0.00          0          0          0
  nlpdiving        :       0.00       0.00          0          0          0
  objpscostdiving  :       0.00       0.00          0          0          0
  octane           :       0.00       0.00          0          0          0
  ofins            :       0.00       0.00          0          0          0
  oneopt           :       0.00       0.00          0          0          0
  proximity        :       0.00       0.00          0          0          0
  pscostdiving     :       0.00       0.00          0          0          0
  randrounding     :       0.05       0.00          7          0          0
  rens             :       0.00       0.00          0          0          0
  reoptsols        :       0.00       0.00          0          0          0
  repair           :       0.00       0.00          0          0          0
  rins             :       0.00       0.00          0          0          0
  rootsoldiving    :       0.00       0.00          0          0          0
  rounding         :       0.00       0.00          7          1          1
  shiftandpropagate:       0.00       0.00          1          0          0
  shifting         :       0.00       0.00          6          0          0
  simplerounding   :       0.00       0.00          7          0          0
  subnlp           :       0.00       0.00          0          0          0
  trivial          :       0.00       0.00          2          0          0
  trivialnegation  :       0.00       0.00          0          0          0
  trysol           :       0.00       0.00          0          0          0
  twoopt           :       0.00       0.00          0          0          0
  undercover       :       0.00       0.00          0          0          0
  vbounds          :       0.01       0.00          1          0          0
  veclendiving     :       0.00       0.00          0          0          0
  zeroobj          :       0.00       0.00          0          0          0
  zirounding       :       0.00       0.00          0          0          0
  other solutions  :          -          -          -          0          -
Diving Statistics  :      Calls      Nodes   LP Iters Backtracks  Conflicts   MinDepth   MaxDepth   AvgDepth  RoundSols  NLeafSols  MinSolDpt  MaxSolDpt  AvgSolDpt
  actconsdiving    :          0          -          -          -          -          -          -          -          -          -          -          -          -
  coefdiving       :          0          -          -          -          -          -          -          -          -          -          -          -          -
  conflictdiving   :          0          -          -          -          -          -          -          -          -          -          -          -          -
  distributiondivin:          0          -          -          -          -          -          -          -          -          -          -          -          -
  farkasdiving     :          0          -          -          -          -          -          -          -          -          -          -          -          -
  fracdiving       :          0          -          -          -          -          -          -          -          -          -          -          -          -
  guideddiving     :          0          -          -          -          -          -          -          -          -          -          -          -          -
  linesearchdiving :          0          -          -          -          -          -          -          -          -          -          -          -          -
  pscostdiving     :          0          -          -          -          -          -          -          -          -          -          -          -          -
  veclendiving     :          0          -          -          -          -          -          -          -          -          -          -          -          -
Neighborhoods      :      Calls  SetupTime  SolveTime SolveNodes       Sols       Best       Exp3  EpsGreedy        UCB TgtFixRate  Opt  Inf Node Stal  Sol  Usr Othr Actv
  rens             :          0       0.00       0.00          0          0          0    0.00000   -1.00000    1.00000      0.900    0    0    0    0    0    0    0    1
  rins             :          0       0.00       0.00          0          0          0    0.00000   -1.00000    1.00000      0.900    0    0    0    0    0    0    0    1
  mutation         :          0       0.00       0.00          0          0          0    0.00000   -1.00000    1.00000      0.900    0    0    0    0    0    0    0    1
  localbranching   :          0       0.00       0.00          0          0          0    0.00000   -1.00000    1.00000      0.900    0    0    0    0    0    0    0    1
  crossover        :          0       0.00       0.00          0          0          0    0.00000   -1.00000    1.00000      0.900    0    0    0    0    0    0    0    1
  proximity        :          0       0.00       0.00          0          0          0    0.00000   -1.00000    1.00000      0.900    0    0    0    0    0    0    0    1
  zeroobjective    :          0       0.00       0.00          0          0          0    0.00000   -1.00000    1.00000      0.900    0    0    0    0    0    0    0    1
  dins             :          0       0.00       0.00          0          0          0    0.00000   -1.00000    1.00000      0.900    0    0    0    0    0    0    0    1
LP                 :       Time      Calls Iterations  Iter/call   Iter/sec  Time-0-It Calls-0-It    ItLimit
  primal LP        :       0.00          0          0       0.00          -       0.00          0
  dual LP          :       0.07          7       1510     215.71   21571.43       0.00          0
  lex dual LP      :       0.00          0          0       0.00          -
  barrier LP       :       0.00          0          0       0.00          -       0.00          0
  resolve instable :       0.00          0          0       0.00          -
  diving/probing LP:       0.17         35       1122      32.06    6600.00
  strong branching :       0.00          0          0       0.00          -          -          -          0
    (at root node) :          -          0          0       0.00          -
  conflict analysis:       0.00          0          0       0.00          -
B&B Tree           :
  number of runs   :          1
  nodes            :          1 (0 internal, 1 leaves)
  feasible leaves  :          0
  infeas. leaves   :          0
  objective leaves :          1
  nodes (total)    :          1 (0 internal, 1 leaves)
  nodes left       :          0
  max depth        :          0
  max depth (total):          0
  backtracks       :          0 (0.0%)
  early backtracks :          0 (0.0%)
  nodes exc. ref.  :          0 (0.0%)
  delayed cutoffs  :          0
  repropagations   :          0 (0 domain reductions, 0 cutoffs)
  avg switch length:       2.00
  switching time   :       0.00
Root Node          :
  First LP value   : -4.28000000000000e+02
  First LP Iters   :        718 (23933.33 Iter/sec)
  First LP Time    :       0.03
  Final Dual Bound : -4.28000000000000e+02
  Final Root Iters :       2632
  Root LP Estimate :                     -
Solution           :
  Solutions found  :          1 (1 improvements)
  First Solution   : -4.28000000000000e+02   (in run 1, after 1 nodes, 0.75 seconds, depth 0, found by <rounding>)
  Gap First Sol.   :       0.00 %
  Gap Last Sol.    :       0.00 %
  Primal Bound     : -4.28000000000000e+02   (in run 1, after 1 nodes, 0.75 seconds, depth 0, found by <rounding>)
  Dual Bound       : -4.28000000000000e+02
  Gap              :       0.00 %
  Avg. Gap         :     100.00 % (75.00 primal-dual integral)
  Tree Data        : 1 nodes (1 visited, 0 inner, 1 leaves, 0 open), progress: 1.0000
Tree Estimation    :       estim       value       trend  resolution      smooth
  wbe              :           1           -           -           -           -
  tree profile     :          -1           -           -           -           -
  gap              :           1     1.00000     1.00000           1           1
  progress         :           1     1.00000     1.00000           1           1
  leaf-frequency   :           1     0.50000     1.00000           1           1
  ssg              :           1     0.00000    -1.00000           1           1
  open-nodes       :           1     0.00000     0.00000           1           1


SCIP> checksol

check best solution
solution is feasible in original problem
Violation          :    absolute    relative
  bounds           : 0.00000e+00 0.00000e+00
  integrality      : 0.00000e+00           -
  LP rows          : 0.00000e+00 0.00000e+00
  constraints      : 0.00000e+00 0.00000e+00

SCIP> write sol /local/tmp/bzfhende-tmpdir/bzfhende.MMMc.143_neos-1224597.scip.M6640.enable_treeprofile.sol

written solution information to file </local/tmp/bzfhende-tmpdir/bzfhende.MMMc.143_neos-1224597.scip.M640.enable_treeprofile.sol>

SCIP> quit

Disabling tree profile data collection
Read MPS: 1
MIP has 3395 vars and 3276 constraints
Read SOL: 1
Objective value computed by solver: -428

Integrality tolerance: 1/10000
Linear tolerance: 1/10000
Objective tolerance: 1/10000

Check SOL: Integrality 1 Constraints 1 Objective 1
Maximum violations: Integrality 0 Constraints 0 Objective 0
@04 1566503791
-----------------------------
Do 22. Aug 21:56:31 CEST 2019
-----------------------------

=ready=
